(set-logic QF_UF)
(declare-fun A0 () Bool)
(declare-fun A1 () Bool)
(declare-fun A2 () Bool)
(declare-fun A3 () Bool)
(declare-fun A4 () Bool)
(declare-fun A5 () Bool)
(declare-fun A6 () Bool)
(declare-fun A7 () Bool)
(declare-fun A8 () Bool)
(declare-fun A9 () Bool)
(declare-fun A10 () Bool)
(declare-fun A11 () Bool)
(declare-fun A12 () Bool)
(declare-fun A13 () Bool)
(declare-fun A14 () Bool)
(declare-fun A15 () Bool)
(declare-fun A16 () Bool)
(declare-fun A17 () Bool)
(declare-fun A18 () Bool)
(declare-fun A19 () Bool)
(declare-fun A20 () Bool)
(declare-fun A21 () Bool)
(declare-fun A22 () Bool)
(declare-fun A23 () Bool)
(declare-fun A24 () Bool)
(assert (let ((.def_0 (not A11))) (let ((.def_1 (or A11 .def_0))) (let ((.def_2 (not A7))) (let ((.def_3 (and .def_2 A23))) (let ((.def_4 (and .def_3 .def_1))) (let ((.def_5 (not .def_4))) (let ((.def_6 (not A3))) (let ((.def_7 (= A17 .def_6))) (let ((.def_8 (not .def_7))) (let ((.def_9 (and A9 A20))) (let ((.def_10 (not .def_9))) (let ((.def_11 (and .def_10 .def_8))) (let ((.def_12 (or .def_11 .def_5))) (let ((.def_13 (not A23))) (let ((.def_14 (not A13))) (let ((.def_15 (and .def_14 .def_13))) (let ((.def_16 (not A18))) (let ((.def_17 (or .def_16 .def_16))) (let ((.def_18 (and .def_17 .def_15))) (let ((.def_19 (not .def_18))) (let ((.def_20 (= A1 .def_16))) (let ((.def_21 (not .def_20))) (let ((.def_22 (not A20))) (let ((.def_23 (or .def_22 A23))) (let ((.def_24 (not .def_23))) (let ((.def_25 (or .def_24 .def_21))) (let ((.def_26 (not .def_25))) (let ((.def_27 (and .def_26 .def_19))) (let ((.def_28 (not .def_27))) (let ((.def_29 (and .def_28 .def_12))) (let ((.def_30 (not .def_29))) (let ((.def_31 (not A22))) (let ((.def_32 (or .def_31 A18))) (let ((.def_33 (= A9 A13))) (let ((.def_34 (= .def_33 .def_32))) (let ((.def_35 (not A16))) (let ((.def_36 (or .def_35 A0))) (let ((.def_37 (or .def_22 A14))) (let ((.def_38 (not .def_37))) (let ((.def_39 (or .def_38 .def_36))) (let ((.def_40 (or .def_39 .def_34))) (let ((.def_41 (or A6 A11))) (let ((.def_42 (not A0))) (let ((.def_43 (and A2 .def_42))) (let ((.def_44 (= .def_43 .def_41))) (let ((.def_45 (not A1))) (let ((.def_46 (or .def_45 A16))) (let ((.def_47 (or .def_14 .def_16))) (let ((.def_48 (not .def_47))) (let ((.def_49 (and .def_48 .def_46))) (let ((.def_50 (not .def_49))) (let ((.def_51 (and .def_50 .def_44))) (let ((.def_52 (not .def_51))) (let ((.def_53 (or .def_52 .def_40))) (let ((.def_54 (and .def_53 .def_30))) (let ((.def_55 (not .def_54))) (let ((.def_56 (or A9 A4))) (let ((.def_57 (not A6))) (let ((.def_58 (and A21 .def_57))) (let ((.def_59 (not .def_58))) (let ((.def_60 (or .def_59 .def_56))) (let ((.def_61 (not .def_60))) (let ((.def_62 (and A14 A4))) (let ((.def_63 (not .def_62))) (let ((.def_64 (and A13 A3))) (let ((.def_65 (and .def_64 .def_63))) (let ((.def_66 (not .def_65))) (let ((.def_67 (or .def_66 .def_61))) (let ((.def_68 (not .def_67))) (let ((.def_69 (not A4))) (let ((.def_70 (or A11 .def_69))) (let ((.def_71 (not .def_70))) (let ((.def_72 (not A2))) (let ((.def_73 (or A9 .def_72))) (let ((.def_74 (not .def_73))) (let ((.def_75 (or .def_74 .def_71))) (let ((.def_76 (not .def_75))) (let ((.def_77 (not A24))) (let ((.def_78 (= .def_77 .def_31))) (let ((.def_79 (not .def_78))) (let ((.def_80 (not A10))) (let ((.def_81 (not A17))) (let ((.def_82 (= .def_81 .def_80))) (let ((.def_83 (and .def_82 .def_79))) (let ((.def_84 (or .def_83 .def_76))) (let ((.def_85 (not .def_84))) (let ((.def_86 (and .def_85 .def_68))) (let ((.def_87 (or A7 A1))) (let ((.def_88 (not A15))) (let ((.def_89 (or .def_88 .def_42))) (let ((.def_90 (or .def_89 .def_87))) (let ((.def_91 (not .def_90))) (let ((.def_92 (= A0 .def_45))) (let ((.def_93 (not .def_92))) (let ((.def_94 (not A5))) (let ((.def_95 (not A21))) (let ((.def_96 (or .def_95 .def_94))) (let ((.def_97 (or .def_96 .def_93))) (let ((.def_98 (or .def_97 .def_91))) (let ((.def_99 (not .def_98))) (let ((.def_100 (and A24 .def_95))) (let ((.def_101 (and .def_81 A10))) (let ((.def_102 (or .def_101 .def_100))) (let ((.def_103 (not .def_102))) (let ((.def_104 (not A8))) (let ((.def_105 (or .def_104 .def_77))) (let ((.def_106 (not A14))) (let ((.def_107 (not A12))) (let ((.def_108 (or .def_107 .def_106))) (let ((.def_109 (not .def_108))) (let ((.def_110 (and .def_109 .def_105))) (let ((.def_111 (not .def_110))) (let ((.def_112 (or .def_111 .def_103))) (let ((.def_113 (not .def_112))) (let ((.def_114 (and .def_113 .def_99))) (let ((.def_115 (and .def_114 .def_86))) (let ((.def_116 (and .def_115 .def_55))) (let ((.def_117 (not .def_116))) (let ((.def_118 (and .def_13 A0))) (let ((.def_119 (and .def_57 .def_107))) (let ((.def_120 (not .def_119))) (let ((.def_121 (and .def_120 .def_118))) (let ((.def_122 (not .def_121))) (let ((.def_123 (not A19))) (let ((.def_124 (or .def_123 A12))) (let ((.def_125 (not .def_124))) (let ((.def_126 (or .def_42 A23))) (let ((.def_127 (and .def_126 .def_125))) (let ((.def_128 (or .def_127 .def_122))) (let ((.def_129 (and A24 .def_104))) (let ((.def_130 (or .def_104 .def_94))) (let ((.def_131 (or .def_130 .def_129))) (let ((.def_132 (not .def_131))) (let ((.def_133 (or .def_106 A11))) (let ((.def_134 (not .def_133))) (let ((.def_135 (= .def_0 A20))) (let ((.def_136 (and .def_135 .def_134))) (let ((.def_137 (not .def_136))) (let ((.def_138 (or .def_137 .def_132))) (let ((.def_139 (or .def_138 .def_128))) (let ((.def_140 (not .def_139))) (let ((.def_141 (or A3 .def_88))) (let ((.def_142 (or .def_104 A4))) (let ((.def_143 (not .def_142))) (let ((.def_144 (or .def_143 .def_141))) (let ((.def_145 (and .def_95 .def_77))) (let ((.def_146 (not .def_145))) (let ((.def_147 (or .def_45 A21))) (let ((.def_148 (not .def_147))) (let ((.def_149 (or .def_148 .def_146))) (let ((.def_150 (and .def_149 .def_144))) (let ((.def_151 (not .def_150))) (let ((.def_152 (or A22 .def_57))) (let ((.def_153 (and .def_57 A23))) (let ((.def_154 (not .def_153))) (let ((.def_155 (or .def_154 .def_152))) (let ((.def_156 (not .def_155))) (let ((.def_157 (or .def_106 A23))) (let ((.def_158 (or .def_80 A14))) (let ((.def_159 (not .def_158))) (let ((.def_160 (and .def_159 .def_157))) (let ((.def_161 (or .def_160 .def_156))) (let ((.def_162 (or .def_161 .def_151))) (let ((.def_163 (not .def_162))) (let ((.def_164 (or .def_163 .def_140))) (let ((.def_165 (or .def_22 A6))) (let ((.def_166 (or .def_6 A19))) (let ((.def_167 (not .def_166))) (let ((.def_168 (and .def_167 .def_165))) (let ((.def_169 (and .def_94 .def_77))) (let ((.def_170 (not .def_169))) (let ((.def_171 (or .def_45 A0))) (let ((.def_172 (not .def_171))) (let ((.def_173 (or .def_172 .def_170))) (let ((.def_174 (not .def_173))) (let ((.def_175 (or .def_174 .def_168))) (let ((.def_176 (not .def_175))) (let ((.def_177 (and A8 A23))) (let ((.def_178 (and .def_6 .def_13))) (let ((.def_179 (or .def_178 .def_177))) (let ((.def_180 (not .def_179))) (let ((.def_181 (= A7 .def_69))) (let ((.def_182 (and .def_72 .def_42))) (let ((.def_183 (not .def_182))) (let ((.def_184 (and .def_183 .def_181))) (let ((.def_185 (not .def_184))) (let ((.def_186 (= .def_185 .def_180))) (let ((.def_187 (not .def_186))) (let ((.def_188 (and .def_187 .def_176))) (let ((.def_189 (not .def_188))) (let ((.def_190 (and .def_35 .def_35))) (let ((.def_191 (not .def_190))) (let ((.def_192 (or A23 A17))) (let ((.def_193 (not .def_192))) (let ((.def_194 (or .def_193 .def_191))) (let ((.def_195 (not .def_194))) (let ((.def_196 (or .def_14 A18))) (let ((.def_197 (not .def_196))) (let ((.def_198 (or .def_13 .def_16))) (let ((.def_199 (not .def_198))) (let ((.def_200 (= .def_199 .def_197))) (let ((.def_201 (and .def_200 .def_195))) (let ((.def_202 (and .def_77 .def_13))) (let ((.def_203 (and A20 .def_22))) (let ((.def_204 (= .def_203 .def_202))) (let ((.def_205 (not .def_204))) (let ((.def_206 (or A19 A14))) (let ((.def_207 (not .def_206))) (let ((.def_208 (and A23 A15))) (let ((.def_209 (not .def_208))) (let ((.def_210 (and .def_209 .def_207))) (let ((.def_211 (or .def_210 .def_205))) (let ((.def_212 (not .def_211))) (let ((.def_213 (and .def_212 .def_201))) (let ((.def_214 (= .def_213 .def_189))) (let ((.def_215 (and .def_214 .def_164))) (let ((.def_216 (not .def_215))) (let ((.def_217 (and .def_216 .def_117))) (let ((.def_218 (or A19 A23))) (let ((.def_219 (not .def_218))) (let ((.def_220 (or A14 .def_22))) (let ((.def_221 (not .def_220))) (let ((.def_222 (and .def_221 .def_219))) (let ((.def_223 (not .def_222))) (let ((.def_224 (or A18 A15))) (let ((.def_225 (and A2 .def_69))) (let ((.def_226 (or .def_225 .def_224))) (let ((.def_227 (or .def_226 .def_223))) (let ((.def_228 (or .def_22 .def_6))) (let ((.def_229 (not .def_228))) (let ((.def_230 (and .def_106 .def_107))) (let ((.def_231 (and .def_230 .def_229))) (let ((.def_232 (not .def_231))) (let ((.def_233 (or .def_104 .def_123))) (let ((.def_234 (not .def_233))) (let ((.def_235 (and .def_123 .def_104))) (let ((.def_236 (not .def_235))) (let ((.def_237 (and .def_236 .def_234))) (let ((.def_238 (or .def_237 .def_232))) (let ((.def_239 (not .def_238))) (let ((.def_240 (or .def_239 .def_227))) (let ((.def_241 (and .def_69 A12))) (let ((.def_242 (not .def_241))) (let ((.def_243 (or .def_22 A19))) (let ((.def_244 (and .def_243 .def_242))) (let ((.def_245 (or .def_45 A5))) (let ((.def_246 (not .def_245))) (let ((.def_247 (or A24 A19))) (let ((.def_248 (and .def_247 .def_246))) (let ((.def_249 (not .def_248))) (let ((.def_250 (or .def_249 .def_244))) (let ((.def_251 (not .def_250))) (let ((.def_252 (not A9))) (let ((.def_253 (and A9 .def_252))) (let ((.def_254 (or .def_106 .def_77))) (let ((.def_255 (or .def_254 .def_253))) (let ((.def_256 (and .def_106 .def_106))) (let ((.def_257 (not .def_256))) (let ((.def_258 (and A17 A7))) (let ((.def_259 (and .def_258 .def_257))) (let ((.def_260 (and .def_259 .def_255))) (let ((.def_261 (not .def_260))) (let ((.def_262 (and .def_261 .def_251))) (let ((.def_263 (and .def_262 .def_240))) (let ((.def_264 (and A5 A21))) (let ((.def_265 (not .def_264))) (let ((.def_266 (and .def_42 .def_252))) (let ((.def_267 (not .def_266))) (let ((.def_268 (and .def_267 .def_265))) (let ((.def_269 (not .def_268))) (let ((.def_270 (or A23 .def_123))) (let ((.def_271 (and .def_107 A13))) (let ((.def_272 (not .def_271))) (let ((.def_273 (= .def_272 .def_270))) (let ((.def_274 (not .def_273))) (let ((.def_275 (or .def_274 .def_269))) (let ((.def_276 (or .def_95 .def_35))) (let ((.def_277 (and .def_0 A1))) (let ((.def_278 (or .def_277 .def_276))) (let ((.def_279 (not .def_278))) (let ((.def_280 (and .def_22 A21))) (let ((.def_281 (not .def_280))) (let ((.def_282 (and .def_0 .def_42))) (let ((.def_283 (and .def_282 .def_281))) (let ((.def_284 (or .def_283 .def_279))) (let ((.def_285 (and .def_284 .def_275))) (let ((.def_286 (or A14 .def_95))) (let ((.def_287 (and .def_31 .def_88))) (let ((.def_288 (not .def_287))) (let ((.def_289 (or .def_288 .def_286))) (let ((.def_290 (not .def_289))) (let ((.def_291 (and A23 A20))) (let ((.def_292 (and .def_72 A0))) (let ((.def_293 (and .def_292 .def_291))) (let ((.def_294 (not .def_293))) (let ((.def_295 (or .def_294 .def_290))) (let ((.def_296 (not .def_295))) (let ((.def_297 (and .def_81 .def_123))) (let ((.def_298 (not .def_297))) (let ((.def_299 (and .def_35 A18))) (let ((.def_300 (not .def_299))) (let ((.def_301 (or .def_300 .def_298))) (let ((.def_302 (and A5 .def_42))) (let ((.def_303 (and A10 .def_42))) (let ((.def_304 (or .def_303 .def_302))) (let ((.def_305 (not .def_304))) (let ((.def_306 (or .def_305 .def_301))) (let ((.def_307 (not .def_306))) (let ((.def_308 (or .def_307 .def_296))) (let ((.def_309 (not .def_308))) (let ((.def_310 (and .def_309 .def_285))) (let ((.def_311 (or .def_310 .def_263))) (let ((.def_312 (not .def_311))) (let ((.def_313 (or A9 .def_77))) (let ((.def_314 (not .def_313))) (let ((.def_315 (or A24 .def_22))) (let ((.def_316 (not .def_315))) (let ((.def_317 (and .def_316 .def_314))) (let ((.def_318 (not .def_317))) (let ((.def_319 (and .def_94 A21))) (let ((.def_320 (not .def_319))) (let ((.def_321 (and .def_80 A8))) (let ((.def_322 (and .def_321 .def_320))) (let ((.def_323 (or .def_322 .def_318))) (let ((.def_324 (or A11 A8))) (let ((.def_325 (= .def_0 .def_16))) (let ((.def_326 (not .def_325))) (let ((.def_327 (and .def_326 .def_324))) (let ((.def_328 (not .def_327))) (let ((.def_329 (and A9 .def_13))) (let ((.def_330 (or .def_0 A19))) (let ((.def_331 (not .def_330))) (let ((.def_332 (and .def_331 .def_329))) (let ((.def_333 (not .def_332))) (let ((.def_334 (or .def_333 .def_328))) (let ((.def_335 (or .def_334 .def_323))) (let ((.def_336 (not .def_335))) (let ((.def_337 (and .def_80 .def_88))) (let ((.def_338 (or .def_14 .def_94))) (let ((.def_339 (not .def_338))) (let ((.def_340 (or .def_339 .def_337))) (let ((.def_341 (not .def_340))) (let ((.def_342 (and .def_94 A10))) (let ((.def_343 (not .def_342))) (let ((.def_344 (and .def_104 .def_16))) (let ((.def_345 (or .def_344 .def_343))) (let ((.def_346 (or .def_345 .def_341))) (let ((.def_347 (or .def_31 A24))) (let ((.def_348 (not .def_347))) (let ((.def_349 (or A13 .def_106))) (let ((.def_350 (not .def_349))) (let ((.def_351 (and .def_350 .def_348))) (let ((.def_352 (not .def_351))) (let ((.def_353 (or .def_42 .def_80))) (let ((.def_354 (and A15 A22))) (let ((.def_355 (or .def_354 .def_353))) (let ((.def_356 (not .def_355))) (let ((.def_357 (and .def_356 .def_352))) (let ((.def_358 (and .def_357 .def_346))) (let ((.def_359 (or .def_358 .def_336))) (let ((.def_360 (not .def_359))) (let ((.def_361 (or A14 .def_123))) (let ((.def_362 (not .def_361))) (let ((.def_363 (and .def_88 .def_106))) (let ((.def_364 (not .def_363))) (let ((.def_365 (and .def_364 .def_362))) (let ((.def_366 (and .def_42 .def_31))) (let ((.def_367 (or .def_193 .def_366))) (let ((.def_368 (not .def_367))) (let ((.def_369 (and .def_368 .def_365))) (let ((.def_370 (and .def_14 A18))) (let ((.def_371 (not .def_370))) (let ((.def_372 (or A14 A24))) (let ((.def_373 (not .def_372))) (let ((.def_374 (or .def_373 .def_371))) (let ((.def_375 (or A10 A14))) (let ((.def_376 (and .def_13 A12))) (let ((.def_377 (not .def_376))) (let ((.def_378 (or .def_377 .def_375))) (let ((.def_379 (not .def_378))) (let ((.def_380 (and .def_379 .def_374))) (let ((.def_381 (not .def_380))) (let ((.def_382 (or .def_381 .def_369))) (let ((.def_383 (and .def_69 A6))) (let ((.def_384 (or A21 .def_69))) (let ((.def_385 (not .def_384))) (let ((.def_386 (or .def_385 .def_383))) (let ((.def_387 (and .def_22 .def_2))) (let ((.def_388 (not .def_387))) (let ((.def_389 (or A11 .def_42))) (let ((.def_390 (not .def_389))) (let ((.def_391 (and .def_390 .def_388))) (let ((.def_392 (or .def_391 .def_386))) (let ((.def_393 (or .def_0 A5))) (let ((.def_394 (not .def_393))) (let ((.def_395 (or A4 .def_0))) (let ((.def_396 (= .def_395 .def_394))) (let ((.def_397 (or A14 .def_35))) (let ((.def_398 (not .def_397))) (let ((.def_399 (and A9 .def_14))) (let ((.def_400 (not .def_399))) (let ((.def_401 (and .def_400 .def_398))) (let ((.def_402 (not .def_401))) (let ((.def_403 (or .def_402 .def_396))) (let ((.def_404 (and .def_403 .def_392))) (let ((.def_405 (and .def_404 .def_382))) (let ((.def_406 (or .def_405 .def_360))) (let ((.def_407 (not .def_406))) (let ((.def_408 (and .def_407 .def_312))) (let ((.def_409 (not .def_408))) (let ((.def_410 (or .def_409 .def_217))) (let ((.def_411 (not .def_410))) .def_411)))))))))))))))))))))))))))))))))))))))))))))))))))))))))))))))))))))))))))))))))))))))))))))))))))))))))))))))))))))))))))))))))))))))))))))))))))))))))))))))))))))))))))))))))))))))))))))))))))))))))))))))))))))))))))))))))))))))))))))))))))))))))))))))))))))))))))))))))))))))))))))))))))))))))))))))))))))))))))))))))))))))))))))))))))))))))))))))))))))))))))))))))))))))))))))))))))))))))))))))))))))))))))))
(check-sat)
